(set-logic HORN)
(declare-fun assign_123_20_5_abs0 (Int Int Int Int Int Int Int) Bool)
(declare-fun assert_114_19_5_abs0 (Int Int Int Int Int Int Int) Bool)
(declare-fun assign_100_18_5_abs0 (Int Int Int Int Int Int Int) Bool)
(declare-fun while_126_17_1_abs0 (Int Int Int Int Int Int Int) Bool)
(declare-fun assign_82_16_1_abs0 (Int Int Int Int Int Int Int) Bool)
(declare-fun assign_73_13_4_abs0 (Int Int Int Int Int Int Int) Bool)
(declare-fun arrayassign_64_12_4_abs0 (Int Int Int Int Int Int Int) Bool)
(declare-fun while_76_11_1_abs0 (Int Int Int Int Int Int Int) Bool)
(declare-fun assign_46_10_1_abs0 (Int Int Int Int Int Int Int) Bool)
(declare-fun assign_40_9_1_abs0 (Int Int Int Int Int Int Int) Bool)
(declare-fun end_abs0 (Int Int Int Int Int Int Int) Bool)
(declare-fun start_abs0 (Int Int Int Int Int Int Int) Bool)
(assert (forall ((a (Array Int Int)) (u Int) (c Int) (tmp Int) (size Int) (i Int) (vabs_f_f Int)) (start_abs0 vabs_f_f (select a vabs_f_f) u c tmp size i)))
(assert (forall ((i Int) (size Int) (tmp Int) (c Int) (u Int) (a (Array Int Int)) (vabs_0_f_f Int)) (=> (start_abs0 vabs_0_f_f (select a vabs_0_f_f) u c tmp size i) (assign_40_9_1_abs0 vabs_0_f_f (select a vabs_0_f_f) u c tmp size i))))
(assert (forall ((rnd Int) (i Int) (size Int) (tmp Int) (c Int) (u Int) (a (Array Int Int)) (vabs_0_f_f Int)) (=> (assign_40_9_1_abs0 vabs_0_f_f (select a vabs_0_f_f) u c tmp size i) (assign_46_10_1_abs0 vabs_0_f_f (select a vabs_0_f_f) u c tmp rnd i))))
(assert (forall ((i Int) (size Int) (tmp Int) (c Int) (u Int) (a (Array Int Int)) (vabs_0_f_f Int)) (=> (assign_46_10_1_abs0 vabs_0_f_f (select a vabs_0_f_f) u c tmp size i) (while_76_11_1_abs0 vabs_0_f_f (select a vabs_0_f_f) u c tmp size 0))))
(assert (forall ((a (Array Int Int)) (u Int) (c Int) (tmp Int) (size Int) (i Int) (vabs_0_f_f Int)) (=> (and (while_76_11_1_abs0 vabs_0_f_f (select a vabs_0_f_f) u c tmp size i) (< i size)) (arrayassign_64_12_4_abs0 vabs_0_f_f (select a vabs_0_f_f) u c tmp size i))))
(assert (forall ((a (Array Int Int)) (u Int) (c Int) (tmp Int) (size Int) (i Int) (vabs_0_f_f Int)) (=> (and (while_76_11_1_abs0 vabs_0_f_f (select a vabs_0_f_f) u c tmp size i) (not (< i size))) (assign_82_16_1_abs0 vabs_0_f_f (select a vabs_0_f_f) u c tmp size i))))
(assert (forall ((i Int) (size Int) (tmp Int) (c Int) (u Int) (a (Array Int Int)) (vabs_0_f_f Int)) (=> (arrayassign_64_12_4_abs0 vabs_0_f_f (select a vabs_0_f_f) u c tmp size i) (assign_73_13_4_abs0 vabs_0_f_f (select (store a i 1) vabs_0_f_f) u c tmp size i))))
(assert (forall ((i Int) (size Int) (tmp Int) (c Int) (u Int) (a (Array Int Int)) (vabs_0_f_f Int)) (=> (assign_73_13_4_abs0 vabs_0_f_f (select a vabs_0_f_f) u c tmp size i) (while_76_11_1_abs0 vabs_0_f_f (select a vabs_0_f_f) u c tmp size (+ i 2)))))
(assert (forall ((i Int) (size Int) (tmp Int) (c Int) (u Int) (a (Array Int Int)) (vabs_0_f_f Int)) (=> (assign_82_16_1_abs0 vabs_0_f_f (select a vabs_0_f_f) u c tmp size i) (while_126_17_1_abs0 vabs_0_f_f (select a vabs_0_f_f) u c tmp size 1))))
(assert (forall ((a (Array Int Int)) (u Int) (c Int) (tmp Int) (size Int) (i Int) (vabs_0_f_f Int)) (=> (and (while_126_17_1_abs0 vabs_0_f_f (select a vabs_0_f_f) u c tmp size i) (< i size)) (assign_100_18_5_abs0 vabs_0_f_f (select a vabs_0_f_f) u c tmp size i))))
(assert (forall ((a (Array Int Int)) (u Int) (c Int) (tmp Int) (size Int) (i Int) (vabs_0_f_f Int)) (=> (and (while_126_17_1_abs0 vabs_0_f_f (select a vabs_0_f_f) u c tmp size i) (not (< i size))) (end_abs0 vabs_0_f_f (select a vabs_0_f_f) u c tmp size i))))
(assert (forall ((i Int) (size Int) (tmp Int) (c Int) (u Int) (a (Array Int Int)) (vabs_0_f_f Int)) (=> (and (assign_100_18_5_abs0 i (select a i) u c tmp size i) (assign_100_18_5_abs0 vabs_0_f_f (select a vabs_0_f_f) u c tmp size i)) (assert_114_19_5_abs0 vabs_0_f_f (select a vabs_0_f_f) (select a i) c tmp size i))))
(assert (forall ((i Int) (size Int) (tmp Int) (c Int) (u Int) (a (Array Int Int))) (=> (assert_114_19_5_abs0 i (select a i) u c tmp size i) (= (select a i) 1))))
(assert (forall ((i Int) (size Int) (tmp Int) (c Int) (u Int) (a (Array Int Int)) (vabs_0_f_f Int)) (=> (assert_114_19_5_abs0 vabs_0_f_f (select a vabs_0_f_f) u c tmp size i) (assign_123_20_5_abs0 vabs_0_f_f (select a vabs_0_f_f) u c tmp size i))))
(assert (forall ((i Int) (size Int) (tmp Int) (c Int) (u Int) (a (Array Int Int)) (vabs_0_f_f Int)) (=> (assign_123_20_5_abs0 vabs_0_f_f (select a vabs_0_f_f) u c tmp size i) (while_126_17_1_abs0 vabs_0_f_f (select a vabs_0_f_f) u c tmp size (+ i 2)))))
(check-sat)